
Welcome to IBM(R) ILOG(R) CPLEX(R) Interactive Optimizer 22.1.1.0
  with Simplex, Mixed Integer & Barrier Optimizers
5725-A06 5725-A29 5724-Y48 5724-Y49 5724-Y54 5724-Y55 5655-Y21
Copyright IBM Corp. 1988, 2022.  All Rights Reserved.

Type 'help' for a list of available commands.
Type 'help' followed by a command name for more
information on commands.

CPLEX> Selected objective sense:  MINIMIZE
Selected objective  name:  00000000
Selected RHS        name:  RHS1
Selected bound      name:  BOUND
Problem 'ee.mps' read.
Read time = 0.03 sec. (3.14 ticks)
CPLEX> New value for time limit in seconds: 7200
CPLEX> New value for parallel optimization mode: -1
CPLEX> New value for default parallel thread count: 40
CPLEX> New value for mixed integer optimality gap tolerance: 1e-13
CPLEX> Version identifier: 22.1.1.0 | 2022-11-28 | 9160aff4d
CPXPARAM_Threads                                 40
CPXPARAM_Parallel                                -1
CPXPARAM_TimeLimit                               7200
CPXPARAM_MIP_Tolerances_MIPGap                   1e-13
Found incumbent of value 0.000000 after 0.00 sec. (0.31 ticks)
Tried aggregator 2 times.
MIP Presolve eliminated 181 rows and 2745 columns.
MIP Presolve modified 5862 coefficients.
Aggregator did 713 substitutions.
Reduced MIP has 3623 rows, 7739 columns, and 28643 nonzeros.
Reduced MIP has 7739 binaries, 0 generals, 0 SOSs, and 0 indicators.
Presolve time = 0.07 sec. (68.58 ticks)
Probing time = 0.03 sec. (5.29 ticks)
Tried aggregator 1 time.
Detecting symmetries...
Reduced MIP has 3623 rows, 7739 columns, and 28643 nonzeros.
Reduced MIP has 7739 binaries, 0 generals, 0 SOSs, and 0 indicators.
Presolve time = 0.02 sec. (21.84 ticks)
Probing time = 0.02 sec. (5.11 ticks)
Clique table members: 18551.
MIP emphasis: balance optimality and feasibility.
MIP search method: dynamic search.
Parallel mode: opportunistic, using up to 40 threads.
Root relaxation solution time = 0.11 sec. (101.87 ticks)

        Nodes                                         Cuts/
   Node  Left     Objective  IInf  Best Integer    Best Bound    ItCnt     Gap

*     0+    0                            0.0000  -1.31000e+13              --- 
*     0+    0                      -3.30000e+12  -1.31000e+13           296.97%
*     0+    0                      -4.40000e+12  -1.31000e+13           197.73%
*     0+    0                      -5.50000e+12  -1.31000e+13           138.18%
      0     0  -1.30900e+13   108  -5.50000e+12  -1.30900e+13     2341  138.00%
*     0+    0                      -1.30900e+13  -1.30900e+13             0.00%
*     0+    0                      -1.30900e+13  -1.30900e+13             0.00%
      0     0  -1.30900e+13    81  -1.30900e+13     Cuts: 123     4396    0.00%
*     0+    0                      -1.30900e+13  -1.30900e+13             0.00%
      0     0  -1.30900e+13   167  -1.30900e+13      Cuts: 54     4624    0.00%
*     0+    0                      -1.30900e+13  -1.30900e+13             0.00%
*     0+    0                      -1.30900e+13  -1.30900e+13             0.00%

Repeating presolve.
Tried aggregator 3 times.
MIP Presolve eliminated 1538 rows and 3870 columns.
MIP Presolve modified 70 coefficients.
Aggregator did 459 substitutions.
Reduced MIP has 1626 rows, 3362 columns, and 11893 nonzeros.
Reduced MIP has 3362 binaries, 0 generals, 0 SOSs, and 0 indicators.
Presolve time = 0.05 sec. (49.53 ticks)
Probing fixed 32 vars, tightened 0 bounds.
Probing time = 0.05 sec. (13.03 ticks)
Tried aggregator 2 times.
MIP Presolve eliminated 40 rows and 55 columns.
Aggregator did 2 substitutions.
Reduced MIP has 1584 rows, 3302 columns, and 11667 nonzeros.
Reduced MIP has 3302 binaries, 0 generals, 0 SOSs, and 0 indicators.
Presolve time = 0.02 sec. (18.99 ticks)
Probing time = 0.04 sec. (12.20 ticks)
Tried aggregator 1 time.
Detecting symmetries...
MIP Presolve eliminated 12 rows and 7 columns.
Reduced MIP has 1572 rows, 3295 columns, and 11631 nonzeros.
Reduced MIP has 3295 binaries, 0 generals, 0 SOSs, and 0 indicators.
Presolve time = 0.02 sec. (13.62 ticks)
Represolve time = 0.21 sec. (131.58 ticks)
Probing time = 0.03 sec. (6.73 ticks)
Clique table members: 7815.
MIP emphasis: balance optimality and feasibility.
MIP search method: dynamic search.
Parallel mode: opportunistic, using up to 40 threads.
Root relaxation solution time = 0.06 sec. (42.80 ticks)

        Nodes                                         Cuts/
   Node  Left     Objective  IInf  Best Integer    Best Bound    ItCnt     Gap

*     0+    0                      -1.30900e+13  -1.30900e+13             0.00%
      0     0  -1.30900e+13   126  -1.30900e+13  -1.30900e+13     6389    0.00%
      0     0  -1.30900e+13   123  -1.30900e+13      Cuts: 68     6502    0.00%
      0     0  -1.30900e+13   181  -1.30900e+13      Cuts: 53     6630    0.00%
      0     0  -1.30900e+13   124  -1.30900e+13      Cuts: 67     6676    0.00%
      0     0  -1.30900e+13   153  -1.30900e+13      Cuts: 46     6697    0.00%
*     0+    0                      -1.30900e+13  -1.30900e+13             0.00%
      0     2  -1.30900e+13   132  -1.30900e+13  -1.30900e+13     6697    0.00%
Elapsed time = 2.13 sec. (1407.98 ticks, tree = 0.02 MB, solutions = 10)
*     4+   32                      -1.30900e+13  -1.30900e+13             0.00%
   2326   112        cutoff        -1.30900e+13  -1.30900e+13    29016    0.00%
   4307   637  -1.30900e+13   116  -1.30900e+13  -1.30900e+13   107630    0.00%
   6953   740  -1.30900e+13    10  -1.30900e+13  -1.30900e+13   127097    0.00%
   9569  1805        cutoff        -1.30900e+13  -1.30900e+13   338297    0.00%
  11547  1299        cutoff        -1.30900e+13  -1.30900e+13   244497    0.00%
  12939  2705  -1.30900e+13    67  -1.30900e+13  -1.30900e+13   527619    0.00%
  13649  2259  -1.30900e+13    95  -1.30900e+13  -1.30900e+13   414666    0.00%
  13842  2522  -1.30900e+13    82  -1.30900e+13  -1.30900e+13   469015    0.00%

Performing restart 1

Repeating presolve.
Tried aggregator 2 times.
MIP Presolve eliminated 29 rows and 376 columns.
MIP Presolve modified 1020 coefficients.
Aggregator did 7 substitutions.
Reduced MIP has 1536 rows, 2911 columns, and 10437 nonzeros.
Reduced MIP has 2911 binaries, 0 generals, 0 SOSs, and 0 indicators.
Presolve time = 0.02 sec. (19.14 ticks)
Tried aggregator 1 time.
MIP Presolve eliminated 2 rows and 2 columns.
Reduced MIP has 1534 rows, 2909 columns, and 10429 nonzeros.
Reduced MIP has 2909 binaries, 0 generals, 0 SOSs, and 0 indicators.
Presolve time = 0.01 sec. (13.23 ticks)
Represolve time = 0.07 sec. (58.49 ticks)
  14015     0  -1.30900e+13   223  -1.30900e+13      Cuts: 22   637752    0.00%
  14015     0  -1.30900e+13   163  -1.30900e+13      Cuts: 17   637809    0.00%
  14015     0  -1.30900e+13   210  -1.30900e+13  ZeroHalf: 13   637880    0.00%
  14015     0  -1.30900e+13   201  -1.30900e+13      Cuts: 11   637925    0.00%
  14015     0  -1.30900e+13   185  -1.30900e+13      Cuts: 20   637962    0.00%
  14015     0  -1.30900e+13   199  -1.30900e+13      Cuts: 18   638001    0.00%
  14015     0  -1.30900e+13   250  -1.30900e+13      Cuts: 22   638030    0.00%
  14015     0  -1.30900e+13   224  -1.30900e+13  ZeroHalf: 24   638095    0.00%
  14015     0  -1.30900e+13   241  -1.30900e+13      Cuts: 40   638146    0.00%
  14015     0  -1.30900e+13   240  -1.30900e+13      Cuts: 32   638220    0.00%
  14015     0  -1.30900e+13   255  -1.30900e+13      Cuts: 33   638304    0.00%
  14015     0  -1.30900e+13   230  -1.30900e+13      Cuts: 30   638400    0.00%
  14015     0  -1.30900e+13   192  -1.30900e+13      Cuts: 30   638445    0.00%
  14015     0  -1.30900e+13   232  -1.30900e+13      Cuts: 27   638481    0.00%
  14015     0  -1.30900e+13   279  -1.30900e+13      Cuts: 37   638540    0.00%
  14015     5        cutoff        -1.30900e+13  -1.30900e+13   639701    0.00%

Clique cuts applied:  23
Cover cuts applied:  242
Flow cuts applied:  4
Mixed integer rounding cuts applied:  7
Zero-half cuts applied:  66
Lift and project cuts applied:  8
Gomory fractional cuts applied:  5

Root node processing (before b&c):
  Real time             =    1.77 sec. (1407.96 ticks)
Parallel b&c, 40 threads:
  Real time             =    5.64 sec. (3917.45 ticks)
  Sync time (average)   =    1.40 sec.
  Wait time (average)   =    0.06 sec.
                          ------------
Total (root+branch&cut) =    7.41 sec. (5325.41 ticks)

Solution pool: 16 solutions saved.

MIP - Integer optimal solution:  Objective = -1.3089999789e+13
Solution time =    7.50 sec.  Iterations = 641786  Nodes = 14140
Deterministic time = 5325.44 ticks  (710.15 ticks/sec)

CPLEX> Solution 'p17' written to file 'ee.sol'.
CPLEX> 